 This version was compiled for x86_64-windows-msvc2008 on Nov 12 2013
 Code version: 6201

 |  Using DFT-SEDC - the DFT Semi-Empirical          |
 |  Dispersion interaction Correction module         |
 |  Copyright (c) 2008 Erik McNellis and Joerg Meyer |
 |  Fritz-Haber-Institut der MPG. Distributed under  |
 |  the GNU Lesser General Public License (LGPL).    |
 | Please cite the following publications in all     |
 | work arising from your use of CASTEP SEDC.        |
 | Erik R. McNellis, Joerg Meyer, and Karsten Reuter |
 | Phys. Rev. B 80, 205414 (2009)                    |

 Pseudo atomic calculation performed for Fe 3d6 4s2

 Converged in 35 iterations to a total energy of -855.8900 eV

 Calculation not parallelised.

 ************************************ Title ************************************
 CASTEP calculation from Materials Studio

 ***************************** General Parameters ******************************

 output verbosity                               : normal  (1)
 write checkpoint data to                       : HCP-Fe__0_0_1_.check
 type of calculation                            : geometry optimization
 stress calculation                             : on
 density difference calculation                 : off
 electron localisation func (ELF) calculation   : off
 Hirshfeld analysis                             : on
 unlimited duration calculation
 timing information                             : on
 write final potential to formatted file        : off
 write final density to formatted file          : off
 write BibTeX reference list                    : on

 output         length unit                     : A
 output           mass unit                     : amu
 output           time unit                     : ps
 output         charge unit                     : e
 output         energy unit                     : eV
 output          force unit                     : eV/A
 output       velocity unit                     : A/ps
 output       pressure unit                     : GPa
 output     inv_length unit                     : 1/A
 output      frequency unit                     : cm-1
 output force constant unit                     : eV/A**2
 output         volume unit                     : A**3
 output   IR intensity unit                     : (D/A)**2/amu
 output         dipole unit                     : D
 output         efield unit                     : eV/A/e
 output        entropy unit                     : J/mol/K

 wavefunctions paging                           : none
 random number generator seed                   : randomised (191635706)
 data distribution                              : optimal for this architecture

 *********************** Exchange-Correlation Parameters ***********************

 using functional                               : Perdew Burke Ernzerhof
 Divergence correction                          : off
 DFT+D: Semi-empirical dispersion correction    : on
 SEDC with                                      : G06 correction scheme

 ************************* Pseudopotential Parameters **************************

 pseudopotential representation                 : reciprocal space
 <beta|phi> representation                      : reciprocal space

 **************************** Basis Set Parameters *****************************

 plane wave basis set cut-off                   :   400.0000   eV
 size of standard grid                          :     1.7500
 size of   fine   gmax                          :    17.9311   1/A
 largest prime factor in FFT                    :          5
 finite basis set correction                    : automatic
 number of sample energies                      :          3
           sample  spacing                      :     5.0000   eV

 **************************** Electronic Parameters ****************************

 number of  electrons                           :  32.00
 net charge of system                           :  0.000
 net spin   of system                           :  0.000
 number of  up  spins                           :  16.00
 number of down spins                           :  16.00
 treating system as non-spin-polarized
 number of bands                                :         20

 ********************* Electronic Minimization Parameters **********************

 Method: Treating system as metallic with density mixing treatment of electrons,
         and number of  SD  steps               :          1
         and number of  CG  steps               :          4

 total energy / atom convergence tol.           : 0.1000E-05   eV
 eigen-energy convergence tolerance             : 0.2000E-06   eV
 max force / atom convergence tol.              : ignored
 convergence tolerance window                   :          3   cycles
 max. number of SCF cycles                      :        100
 number of fixed-spin iterations                :         10
 smearing scheme                                : Gaussian
 smearing width                                 : 0.1000       eV
 Fermi energy convergence tolerance             : 0.2721E-13   eV
 periodic dipole correction                     : NONE

 ************************** Density Mixing Parameters **************************

 density-mixing scheme                          : Pulay
 max. length of mixing history                  :         20
 charge density mixing amplitude                : 0.5000
 cut-off energy for mixing                      :  400.0       eV
 charge density mixing g-vector                 :  1.500       1/A

 *********************** Population Analysis Parameters ************************

 Population analysis with cutoff                :  3.000       A

 ********************** Geometry Optimization Parameters ***********************

 optimization method                            : BFGS
 variable cell method                           : fixed basis quality
 max. number of steps                           :        100
 estimated bulk modulus                         :  500.0       GPa
 estimated <frequency>                          :  1668.       cm-1
 geom line minimiser                            : on
 with line minimiser tolerance                  :     0.4000
 total energy convergence tolerance             : 0.1000E-04   eV/atom
        max ionic |force| tolerance             : 0.2000E-01   eV/A
 max ionic |displacement| tolerance             : 0.1000E-02   A
   max |stress component| tolerance             : 0.5000E-01   GPa
 convergence tolerance window                   :          2   steps
 backup results every                           :          5   steps

                                      Unit Cell
        Real Lattice(A)                      Reciprocal Lattice(1/A)
   4.0651232  -2.3470000   0.0000000        1.5456322   0.0000000   0.0000000
   0.0000000   4.6940000   0.0000000        0.7728161   1.3385567   0.0000000
   0.0000000   0.0000000  20.0000000        0.0000000   0.0000000   0.3141593

                       Lattice parameters(A)       Cell Angles
                    a =    4.694000          alpha =   90.000000
                    b =    4.694000          beta  =   90.000000
                    c =   20.000000          gamma =  120.000000

                       Current cell volume =  381.633770       A**3

                                     Cell Contents
                         Total number of ions in cell =    4
                      Total number of species in cell =    1
                        Max number of any one species =    4

            x  Element    Atom        Fractional coordinates of atoms  x
            x            Number           u          v          w      x
            x  Fe           1         0.333333   0.166667   0.000000   x
            x  Fe           2         0.833333   0.166667   0.000000   x
            x  Fe           3         0.333333   0.666667   0.000000   x
            x  Fe           4         0.833333   0.666667   0.000000   x

                         No user defined ionic velocities

                                   Details of Species

                               Mass of species in AMU
                                    Fe   55.8470001

                          Electric Quadrupole Moment (Barn)
                                    Fe    0.1600000 Isotope 57

                          Files used for pseudopotentials:
                                    Fe Fe_00PBE.uspcc

                              k-Points For BZ Sampling
                       MP grid size for SCF calculation is  3  3  1
                         Number of kpoints used =           5

             +  Number       Fractional coordinates        Weight  +
             +     1   0.333333   0.333333   0.000000   0.2222222  +
             +     2   0.333333   0.000000   0.000000   0.2222222  +
             +     3   0.333333  -0.333333   0.000000   0.2222222  +
             +     4   0.000000   0.333333   0.000000   0.2222222  +
             +     5   0.000000   0.000000   0.000000   0.1111111  +

                               Symmetry and Constraints

                      Cell is a supercell containing 4 primitive cells
                      Maximum deviation from symmetry =  0.00000         ANG

         There are no symmetry operations specified or generated for this cell
         There are no ionic constraints specified or generated for this cell
                      Point group of crystal =     1: C1, 1, 1

                         Centre of mass is NOT constrained

                         Number of cell constraints= 0
                         Cell constraints are:  1 2 3 4 5 6

                         External pressure/stress (GPa)
                          0.00000   0.00000   0.00000
                                    0.00000   0.00000
                                              0.00000

                                  DFT-D parameters

                          Dispersion-correction scheme : G06
                        Parameter s6 :   0.750000 (default)
                        Parameter d :  20.000000 (default)

        x              Atomic DFT-D parameters                             x
        x  Species      C6            R0                                   x
        x               eV A^6        Ang                                  x
        x  Fe          111.9341       1.5620   (default)                   x

      2  -3.43765764E+003 -8.61454172E+000   3.85358952E+001       3.95  <-- SCF
 Warning: There are no empty bands for at least one kpoint and spin; this may
          slow the convergence and/or lead to an inaccurate groundstate.
          If this warning persists, you should consider increasing nextra_bands
          and/or reducing smearing_width in the param file.
          Recommend using nextra_bands of 7 to 15.

[...]

     35  -3.45228612E+003 -5.98342443E+000  -1.97611851E-008      60.77  <-- SCF
------------------------------------------------------------------------ <-- SCF

Final energy, E             =  -3452.194197408     eV
Final free energy (E-TS)    =  -3452.286122756     eV
(energies not corrected for finite basis set)

NB est. 0K energy (E-0.5TS)      =  -3452.240160082     eV

Dispersion corrected final energy*, Ecor          =  -3452.613362273     eV
Dispersion corrected final free energy* (Ecor-TS) =  -3452.705287621     eV
NB dispersion corrected est. 0K energy* (Ecor-0.5TS) =  -3452.659324947     eV

 * not corrected for finite basis set

Calculating total energy with cut-off of  395.000eV.
------------------------------------------------------------------------ <-- SCF
SCF loop      Energy           Fermi           Energy gain       Timer   <-- SCF
                               energy          per atom          (sec)   <-- SCF
------------------------------------------------------------------------ <-- SCF
Initial  -3.45219420E+003  0.00000000E+000                        61.42  <-- SCF
 Warning: There are no empty bands for at least one kpoint and spin; this may
          slow the convergence and/or lead to an inaccurate groundstate.
          If this warning persists, you should consider increasing nextra_bands
          and/or reducing smearing_width in the param file.
          Recommend using nextra_bands of 7 to 15.

[...]

Calculating total energy with cut-off of  400.000eV.
------------------------------------------------------------------------ <-- SCF
SCF loop      Energy           Fermi           Energy gain       Timer   <-- SCF
                               energy          per atom          (sec)   <-- SCF
------------------------------------------------------------------------ <-- SCF
Initial  -3.45219472E+003  0.00000000E+000                        70.19  <-- SCF
 Warning: There are no empty bands for at least one kpoint and spin; this may
          slow the convergence and/or lead to an inaccurate groundstate.
          If this warning persists, you should consider increasing nextra_bands
          and/or reducing smearing_width in the param file.
          Recommend using nextra_bands of 7 to 15.

[...]

 For future reference: finite basis dEtot/dlog(Ecut) =      -0.042330eV
 Total energy corrected for finite basis set =   -3452.706377 eV

 *********************************** Forces ***********************************
 *                        Cartesian components (eV/A)                         *
 *                   x                    y                    z              *
 * Fe        1      0.00000              0.00000              0.00000         *
 * Fe        2      0.00000              0.00000              0.00000         *
 * Fe        3      0.00000              0.00000              0.00000         *
 * Fe        4      0.00000              0.00000              0.00000         *

 ***************** Stress Tensor *****************
 *          Cartesian components (GPa)           *
 *             x             y             z     *
 *  x      2.516830     -0.000197      0.000001  *
 *  y     -0.000197      2.517066      0.000000  *
 *  z      0.000001      0.000000      0.001726  *
 *  Pressure:   -1.6785                          *
 BFGS: finished iteration     0 with enthalpy= -3.45270638E+003 eV

 +-----------+-----------------+-----------------+------------+-----+ <-- BFGS
 | Parameter |      value      |    tolerance    |    units   | OK? | <-- BFGS
 +-----------+-----------------+-----------------+------------+-----+ <-- BFGS
 |  dE/ion   |   0.000000E+000 |   1.000000E-005 |         eV | No  | <-- BFGS
 |  |F|max   |   4.450590E-006 |   2.000000E-002 |       eV/A | Yes | <-- BFGS
 |  |dR|max  |   0.000000E+000 |   1.000000E-003 |          A | No  | <-- BFGS
 |   Smax    |   2.517066E+000 |   5.000000E-002 |        GPa | No  | <-- BFGS
 +-----------+-----------------+-----------------+------------+-----+ <-- BFGS

 Starting BFGS iteration          1 ...

 +------------+-------------+-------------+-----------------+ <-- min BFGS
 |    Step    |   lambda    |   F.delta   |    enthalpy     | <-- min BFGS
 +------------+-------------+-------------+-----------------+ <-- min BFGS
 |  previous  |    0.000000 |    0.000739 |    -3452.706377 | <-- min BFGS
 +------------+-------------+-------------+-----------------+ <-- min BFGS

 BFGS: starting iteration         1 with trial guess (lambda=  1.000000)

[...]

                                     Cell Contents

[...]

------------------------------------------------------------------------ <-- SCF
SCF loop      Energy           Fermi           Energy gain       Timer   <-- SCF
                               energy          per atom          (sec)   <-- SCF
------------------------------------------------------------------------ <-- SCF
Initial  -3.45219595E+003  0.00000000E+000                        89.59  <-- SCF
 Warning: There are no empty bands for at least one kpoint and spin; this may
          slow the convergence and/or lead to an inaccurate groundstate.
          If this warning persists, you should consider increasing nextra_bands
          and/or reducing smearing_width in the param file.
          Recommend using nextra_bands of 7 to 15.

[...]

 ***************** Stress Tensor *****************
 *          Cartesian components (GPa)           *
 *             x             y             z     *
 *  x      2.400344     -0.000220      0.000000  *
 *  y     -0.000220      2.400522      0.000000  *
 *  z      0.000000      0.000000      0.013792  *
 *  Pressure:   -1.6049                          *

 +------------+-------------+-------------+-----------------+ <-- min BFGS
 |    Step    |   lambda    |   F.delta   |    enthalpy     | <-- min BFGS
 +------------+-------------+-------------+-----------------+ <-- min BFGS
 |  previous  |    0.000000 |    0.000739 |    -3452.706377 | <-- min BFGS
 | trial step |    1.000000 |    0.000704 |    -3452.725931 | <-- min BFGS
 +------------+-------------+-------------+-----------------+ <-- min BFGS

 BFGS: improving iteration         1 with line minimization (lambda= 20.880319)

[...]

------------------------------------------------------------------------ <-- SCF
SCF loop      Energy           Fermi           Energy gain       Timer   <-- SCF
                               energy          per atom          (sec)   <-- SCF
------------------------------------------------------------------------ <-- SCF
Initial  -3.44610172E+003  0.00000000E+000                       123.48  <-- SCF
      1  -3.46872178E+003 -2.36361944E+000   5.65501392E+000     125.06  <-- SCF
      2  -3.46890528E+003 -2.37075345E+000   4.58748665E-002     126.55  <-- SCF
 Warning: There are no empty bands for at least one kpoint and spin; this may
          slow the convergence and/or lead to an inaccurate groundstate.
          If this warning persists, you should consider increasing nextra_bands
          and/or reducing smearing_width in the param file.
          Recommend using nextra_bands of 7 to 15.

[...]

 +------------+-------------+-------------+-----------------+ <-- min BFGS
 |    Step    |   lambda    |   F.delta   |    enthalpy     | <-- min BFGS
 +------------+-------------+-------------+-----------------+ <-- min BFGS
 |  previous  |    0.000000 |    0.000739 |    -3452.706377 | <-- min BFGS
 | trial step |    1.000000 |    0.000704 |    -3452.725931 | <-- min BFGS
 |  line step |   20.880319 |   -0.000241 |    -3452.865690 | <-- min BFGS
 +------------+-------------+-------------+-----------------+ <-- min BFGS

 BFGS: finished iteration     1 with enthalpy= -3.45286569E+003 eV

 +-----------+-----------------+-----------------+------------+-----+ <-- BFGS
 | Parameter |      value      |    tolerance    |    units   | OK? | <-- BFGS
 +-----------+-----------------+-----------------+------------+-----+ <-- BFGS
 |  dE/ion   |   3.982839E-002 |   1.000000E-005 |         eV | No  | <-- BFGS
 |  |F|max   |   2.552117E-006 |   2.000000E-002 |       eV/A | Yes | <-- BFGS
 |  |dR|max  |   1.569909E-007 |   1.000000E-003 |          A | Yes | <-- BFGS
 |   Smax    |   8.500222E-001 |   5.000000E-002 |        GPa | No  | <-- BFGS
 +-----------+-----------------+-----------------+------------+-----+ <-- BFGS

[...]

 +-----------+-----------------+-----------------+------------+-----+ <-- BFGS
 | Parameter |      value      |    tolerance    |    units   | OK? | <-- BFGS
 +-----------+-----------------+-----------------+------------+-----+ <-- BFGS
 |  dE/ion   |   3.515256E-003 |   1.000000E-005 |         eV | No  | <-- BFGS
 |  |F|max   |   1.764300E-006 |   2.000000E-002 |       eV/A | Yes | <-- BFGS
 |  |dR|max  |   3.880698E-008 |   1.000000E-003 |          A | Yes | <-- BFGS
 |   Smax    |   1.250003E-001 |   5.000000E-002 |        GPa | No  | <-- BFGS
 +-----------+-----------------+-----------------+------------+-----+ <-- BFGS

[...]

 +-----------+-----------------+-----------------+------------+-----+ <-- BFGS
 | Parameter |      value      |    tolerance    |    units   | OK? | <-- BFGS
 +-----------+-----------------+-----------------+------------+-----+ <-- BFGS
 |  dE/ion   |   8.025108E-005 |   1.000000E-005 |         eV | No  | <-- BFGS
 |  |F|max   |   1.686224E-006 |   2.000000E-002 |       eV/A | Yes | <-- BFGS
 |  |dR|max  |   4.316685E-009 |   1.000000E-003 |          A | Yes | <-- BFGS
 |   Smax    |   1.281380E-002 |   5.000000E-002 |        GPa | Yes | <-- BFGS
 +-----------+-----------------+-----------------+------------+-----+ <-- BFGS

 Starting BFGS iteration          4 ...

 +------------+-------------+-------------+-----------------+ <-- min BFGS
 |    Step    |   lambda    |   F.delta   |    enthalpy     | <-- min BFGS
 +------------+-------------+-------------+-----------------+ <-- min BFGS
 |  previous  |    0.000000 |  2.842E-007 |    -3452.880072 | <-- min BFGS
 +------------+-------------+-------------+-----------------+ <-- min BFGS

 BFGS: starting iteration         4 with trial guess (lambda=  1.000000)

[...]

------------------------------------------------------------------------ <-- SCF
SCF loop      Energy           Fermi           Energy gain       Timer   <-- SCF
                               energy          per atom          (sec)   <-- SCF
------------------------------------------------------------------------ <-- SCF
Initial  -3.45230523E+003  0.00000000E+000                       260.41  <-- SCF
 Warning: There are no empty bands for at least one kpoint and spin; this may
          slow the convergence and/or lead to an inaccurate groundstate.
          If this warning persists, you should consider increasing nextra_bands
          and/or reducing smearing_width in the param file.
          Recommend using nextra_bands of 7 to 15.

[...]

     13  -3.45240150E+003 -6.00513250E+000   3.50989043E-007     278.12  <-- SCF
 Warning: There are no empty bands for at least one kpoint and spin; this may
          slow the convergence and/or lead to an inaccurate groundstate.
          If this warning persists, you should consider increasing nextra_bands
          and/or reducing smearing_width in the param file.
          Recommend using nextra_bands of 7 to 15.

     14  -3.45240150E+003 -6.00519288E+000   2.16933362E-007     279.20  <-- SCF
------------------------------------------------------------------------ <-- SCF

Final energy, E             =  -3452.305304112     eV
Final free energy (E-TS)    =  -3452.401500835     eV
(energies not corrected for finite basis set)

NB est. 0K energy (E-0.5TS)      =  -3452.353402473     eV

Dispersion corrected final energy*, Ecor          =  -3452.783971058     eV
Dispersion corrected final free energy* (Ecor-TS) =  -3452.880167781     eV
NB dispersion corrected est. 0K energy* (Ecor-0.5TS) =  -3452.832069420     eV

 * not corrected for finite basis set

[...]

 +------------+-------------+-------------+-----------------+ <-- min BFGS
 |    Step    |   lambda    |   F.delta   |    enthalpy     | <-- min BFGS
 +------------+-------------+-------------+-----------------+ <-- min BFGS
 |  previous  |    0.000000 |  2.842E-007 |    -3452.880072 | <-- min BFGS
 | trial step |    1.000000 | -1.688E-007 |    -3452.880078 | <-- min BFGS
 +------------+-------------+-------------+-----------------+ <-- min BFGS

 BFGS: finished iteration     4 with enthalpy= -3.45288008E+003 eV

 +-----------+-----------------+-----------------+------------+-----+ <-- BFGS
 | Parameter |      value      |    tolerance    |    units   | OK? | <-- BFGS
 +-----------+-----------------+-----------------+------------+-----+ <-- BFGS
 |  dE/ion   |   1.376195E-006 |   1.000000E-005 |         eV | Yes | <-- BFGS
 |  |F|max   |   1.646092E-006 |   2.000000E-002 |       eV/A | Yes | <-- BFGS
 |  |dR|max  |   2.976400E-009 |   1.000000E-003 |          A | Yes | <-- BFGS
 |   Smax    |   8.060608E-003 |   5.000000E-002 |        GPa | Yes | <-- BFGS
 +-----------+-----------------+-----------------+------------+-----+ <-- BFGS

 BFGS : Geometry optimization completed successfully.

 BFGS : Final Configuration:

                                      Unit Cell
        Real Lattice(A)              Reciprocal Lattice(1/A)
   3.9526601  -2.2820568   0.0000000        1.5896071  -0.0000037   0.0000000
   0.0000107   4.5641322   0.0000000        0.7948003   1.3766421   0.0000000
  -0.0000002  -0.0000001  19.9994273        0.0000000   0.0000000   0.3141683

                       Lattice parameters(A)       Cell Angles
                    a =    4.564132          alpha =   90.000000
                    b =    4.564132          beta  =   90.000001
                    c =   19.999427          gamma =  119.999729

                Current cell volume =  360.799426 A**3

                                     Cell Contents

            x  Element    Atom        Fractional coordinates of atoms  x
            x            Number           u          v          w      x
            x  Fe           1         0.333333   0.166667   0.000000   x
            x  Fe           2         0.833333   0.166667   0.000000   x
            x  Fe           3         0.333333   0.666667   0.000000   x
            x  Fe           4         0.833333   0.666667   0.000000   x

 BFGS : Final Enthalpy     = -3.45288008E+003 eV
 BFGS : Final <frequency>  unchanged from initial value
 BFGS : Final bulk modulus =      53.62357 GPa

 *********************************** Forces ***********************************
 *                        Cartesian components (eV/A)                         *
 *                   x                    y                    z              *
 * Fe        1      0.00000              0.00000              0.00000         *
 * Fe        2      0.00000              0.00000              0.00000         *
 * Fe        3      0.00000              0.00000              0.00000         *
 * Fe        4      0.00000              0.00000              0.00000         *

 ***************** Stress Tensor *****************
 *          Cartesian components (GPa)           *
 *             x             y             z     *
 *  x     -0.007747     -0.000048      0.000000  *
 *  y     -0.000048     -0.008061      0.000000  *
 *  z      0.000000      0.000000      0.003734  *
 *  Pressure:    0.0040                          *

 Pseudo atomic calculation performed for Fe 3d6 4s2

 Converged in 35 iterations to a total energy of -855.8900 eV

Charge spilling parameter for spin component 1 = 0.44%

     Atomic Populations (Mulliken)
Species   Ion     s      p      d      f     Total  Charge (e)
  Fe       1     0.96   0.30   6.75   0.00   8.00     0.00
  Fe       2     0.96   0.30   6.75   0.00   8.00     0.00
  Fe       3     0.96   0.30   6.75   0.00   8.00     0.00
  Fe       4     0.96   0.30   6.75   0.00   8.00     0.00

            Bond              Population      Length (A)
         Fe 1 -- Fe 3              0.21        2.28207
         Fe 2 -- Fe 4              0.21        2.28207
         Fe 1 -- Fe 2              0.21        2.28207
         Fe 3 -- Fe 4              0.21        2.28207

     Hirshfeld Analysis
Species   Ion     Hirshfeld Charge (e)
  Fe       1                 0.00
  Fe       2                 0.00
  Fe       3                 0.00
  Fe       4                 0.00

Writing analysis data to HCP-Fe__0_0_1_.castep_bin

Writing model to HCP-Fe__0_0_1_.check

 A BibTeX formatted list of references used in this run has been written to
 HCP-Fe__0_0_1_.bib

Initialisation time =      0.20 s
Calculation time    =    282.67 s
Finalisation time   =      0.30 s
Total time          =    283.17 s