 This version was compiled for x86_64-windows-msvc2008 on Nov 12 2013
 Code version: 6201

 |  Using DFT-SEDC - the DFT Semi-Empirical          |
 |  Dispersion interaction Correction module         |
 |  Copyright (c) 2008 Erik McNellis and Joerg Meyer |
 |  Fritz-Haber-Institut der MPG. Distributed under  |
 |  the GNU Lesser General Public License (LGPL).    |
 | Please cite the following publications in all     |
 | work arising from your use of CASTEP SEDC.        |
 | Erik R. McNellis, Joerg Meyer, and Karsten Reuter |
 | Phys. Rev. B 80, 205414 (2009)                    |

 Pseudo atomic calculation performed for Fe 3d6 4s2

 Converged in 35 iterations to a total energy of -855.8900 eV

 Calculation not parallelised.

 ************************************ Title ************************************
 CASTEP calculation from Materials Studio

 ***************************** General Parameters ******************************

 output verbosity                               : normal  (1)
 write checkpoint data to                       : FCC-Fe__1_0_0_.check
 type of calculation                            : geometry optimization
 stress calculation                             : on
 density difference calculation                 : off
 electron localisation func (ELF) calculation   : off
 Hirshfeld analysis                             : on
 unlimited duration calculation
 timing information                             : on
 write final potential to formatted file        : off
 write final density to formatted file          : off
 write BibTeX reference list                    : on

 output         length unit                     : A
 output           mass unit                     : amu
 output           time unit                     : ps
 output         charge unit                     : e
 output         energy unit                     : eV
 output          force unit                     : eV/A
 output       velocity unit                     : A/ps
 output       pressure unit                     : GPa
 output     inv_length unit                     : 1/A
 output      frequency unit                     : cm-1
 output force constant unit                     : eV/A**2
 output         volume unit                     : A**3
 output   IR intensity unit                     : (D/A)**2/amu
 output         dipole unit                     : D
 output         efield unit                     : eV/A/e
 output        entropy unit                     : J/mol/K

 wavefunctions paging                           : none
 random number generator seed                   : randomised (185859251)
 data distribution                              : optimal for this architecture

 *********************** Exchange-Correlation Parameters ***********************

 using functional                               : Perdew Burke Ernzerhof
 Divergence correction                          : off
 DFT+D: Semi-empirical dispersion correction    : on
 SEDC with                                      : G06 correction scheme

 ************************* Pseudopotential Parameters **************************

 pseudopotential representation                 : reciprocal space
 <beta|phi> representation                      : reciprocal space

 **************************** Basis Set Parameters *****************************

 plane wave basis set cut-off                   :   400.0000   eV
 size of standard grid                          :     1.7500
 size of   fine   gmax                          :    17.9311   1/A
 largest prime factor in FFT                    :          5
 finite basis set correction                    : automatic
 number of sample energies                      :          3
           sample  spacing                      :     5.0000   eV

 **************************** Electronic Parameters ****************************

 number of  electrons                           :  32.00
 net charge of system                           :  0.000
 net spin   of system                           :  0.000
 number of  up  spins                           :  16.00
 number of down spins                           :  16.00
 treating system as non-spin-polarized
 number of bands                                :         20

 ********************* Electronic Minimization Parameters **********************

 Method: Treating system as metallic with density mixing treatment of electrons,
         and number of  SD  steps               :          1
         and number of  CG  steps               :          4

 total energy / atom convergence tol.           : 0.1000E-05   eV
 eigen-energy convergence tolerance             : 0.2000E-06   eV
 max force / atom convergence tol.              : ignored
 convergence tolerance window                   :          3   cycles
 max. number of SCF cycles                      :        100
 number of fixed-spin iterations                :         10
 smearing scheme                                : Gaussian
 smearing width                                 : 0.1000       eV
 Fermi energy convergence tolerance             : 0.2721E-13   eV
 periodic dipole correction                     : NONE

 ************************** Density Mixing Parameters **************************

 density-mixing scheme                          : Pulay
 max. length of mixing history                  :         20
 charge density mixing amplitude                : 0.5000
 cut-off energy for mixing                      :  400.0       eV
 charge density mixing g-vector                 :  1.500       1/A

 *********************** Population Analysis Parameters ************************

 Population analysis with cutoff                :  3.000       A

 ********************** Geometry Optimization Parameters ***********************

 optimization method                            : BFGS
 variable cell method                           : fixed basis quality
 max. number of steps                           :        100
 estimated bulk modulus                         :  500.0       GPa
 estimated <frequency>                          :  1668.       cm-1
 geom line minimiser                            : on
 with line minimiser tolerance                  :     0.4000
 total energy convergence tolerance             : 0.1000E-04   eV/atom
        max ionic |force| tolerance             : 0.2000E-01   eV/A
 max ionic |displacement| tolerance             : 0.1000E-02   A
   max |stress component| tolerance             : 0.5000E-01   GPa
 convergence tolerance window                   :          2   steps
 backup results every                           :          5   steps

                                      Unit Cell
        Real Lattice(A)                      Reciprocal Lattice(1/A)
   4.9172206   0.0000000   0.0000000        1.2777920   0.0000000   0.0000000
   0.0000000   4.9172206   0.0000000        0.0000000   1.2777920   0.0000000
   0.0000000   0.0000000  20.0000000        0.0000000   0.0000000   0.3141593

                       Lattice parameters(A)       Cell Angles
                    a =    4.917221          alpha =   90.000000
                    b =    4.917221          beta  =   90.000000
                    c =   20.000000          gamma =   90.000000

                       Current cell volume =  483.581160       A**3

                                     Cell Contents
                         Total number of ions in cell =    4
                      Total number of species in cell =    1
                        Max number of any one species =    4

            x  Element    Atom        Fractional coordinates of atoms  x
            x            Number           u          v          w      x
            x  Fe           1         0.000000   0.000000   0.000000   x
            x  Fe           2         0.500000   0.000000   0.000000   x
            x  Fe           3         0.000000   0.500000   0.000000   x
            x  Fe           4         0.500000   0.500000   0.000000   x

                         No user defined ionic velocities

                                   Details of Species

                               Mass of species in AMU
                                    Fe   55.8470001

                          Electric Quadrupole Moment (Barn)
                                    Fe    0.1600000 Isotope 57

                          Files used for pseudopotentials:
                                    Fe Fe_00PBE.uspcc

                              k-Points For BZ Sampling
                       MP grid size for SCF calculation is  3  3  1
                         Number of kpoints used =           5

             +  Number       Fractional coordinates        Weight  +
             +     1   0.333333   0.333333   0.000000   0.2222222  +
             +     2   0.333333   0.000000   0.000000   0.2222222  +
             +     3   0.333333  -0.333333   0.000000   0.2222222  +
             +     4   0.000000   0.333333   0.000000   0.2222222  +
             +     5   0.000000   0.000000   0.000000   0.1111111  +

                               Symmetry and Constraints

                      Cell is a supercell containing 4 primitive cells
                      Maximum deviation from symmetry =  0.00000         ANG

         There are no symmetry operations specified or generated for this cell
         There are no ionic constraints specified or generated for this cell
                      Point group of crystal =     1: C1, 1, 1

                         Centre of mass is NOT constrained

                         Number of cell constraints= 0
                         Cell constraints are:  1 2 3 4 5 6

                         External pressure/stress (GPa)
                          0.00000   0.00000   0.00000
                                    0.00000   0.00000
                                              0.00000

                                  DFT-D parameters

                          Dispersion-correction scheme : G06
                        Parameter s6 :   0.750000 (default)
                        Parameter d :  20.000000 (default)

        x              Atomic DFT-D parameters                             x
        x  Species      C6            R0                                   x
        x               eV A^6        Ang                                  x
        x  Fe          111.9341       1.5620   (default)                   x

      3  -3.44867120E+003 -8.10829512E+000   3.27585904E+000       7.72  <-- SCF
 Warning: There are no empty bands for at least one kpoint and spin; this may
          slow the convergence and/or lead to an inaccurate groundstate.
          If this warning persists, you should consider increasing nextra_bands
          and/or reducing smearing_width in the param file.
          Recommend using nextra_bands of 7 to 15.

[...]

     38  -3.44901434E+003 -5.59153047E+000   2.87730725E-007      88.78  <-- SCF
------------------------------------------------------------------------ <-- SCF

Final energy, E             =  -3448.813475938     eV
Final free energy (E-TS)    =  -3449.014335695     eV
(energies not corrected for finite basis set)

NB est. 0K energy (E-0.5TS)      =  -3448.913905816     eV

Dispersion corrected final energy*, Ecor          =  -3449.321379044     eV
Dispersion corrected final free energy* (Ecor-TS) =  -3449.522238801     eV
NB dispersion corrected est. 0K energy* (Ecor-0.5TS) =  -3449.421808922     eV

 * not corrected for finite basis set

Calculating total energy with cut-off of  395.000eV.
------------------------------------------------------------------------ <-- SCF
SCF loop      Energy           Fermi           Energy gain       Timer   <-- SCF
                               energy          per atom          (sec)   <-- SCF
------------------------------------------------------------------------ <-- SCF
Initial  -3.44881348E+003  0.00000000E+000                        89.59  <-- SCF
 Warning: There are no empty bands for at least one kpoint and spin; this may
          slow the convergence and/or lead to an inaccurate groundstate.
          If this warning persists, you should consider increasing nextra_bands
          and/or reducing smearing_width in the param file.
          Recommend using nextra_bands of 7 to 15.

[...]

Calculating total energy with cut-off of  400.000eV.
------------------------------------------------------------------------ <-- SCF
SCF loop      Energy           Fermi           Energy gain       Timer   <-- SCF
                               energy          per atom          (sec)   <-- SCF
------------------------------------------------------------------------ <-- SCF
Initial  -3.44881396E+003  0.00000000E+000                       105.28  <-- SCF
 Warning: There are no empty bands for at least one kpoint and spin; this may
          slow the convergence and/or lead to an inaccurate groundstate.
          If this warning persists, you should consider increasing nextra_bands
          and/or reducing smearing_width in the param file.
          Recommend using nextra_bands of 7 to 15.

[...]

 For future reference: finite basis dEtot/dlog(Ecut) =      -0.044803eV
 Total energy corrected for finite basis set =   -3449.523397 eV

 *********************************** Forces ***********************************
 *                        Cartesian components (eV/A)                         *
 *                   x                    y                    z              *
 * Fe        1     -0.00001              0.00000             -0.00003         *
 * Fe        2      0.00001              0.00000             -0.00012         *
 * Fe        3      0.00001              0.00000              0.00012         *
 * Fe        4     -0.00001              0.00000              0.00003         *

 ***************** Stress Tensor *****************
 *          Cartesian components (GPa)           *
 *             x             y             z     *
 *  x      5.978549      0.000001      0.000012  *
 *  y      0.000001      5.978661      0.000014  *
 *  z      0.000012      0.000014      0.000856  *
 *  Pressure:   -3.9860                          *
 BFGS: finished iteration     0 with enthalpy= -3.44952340E+003 eV

 +-----------+-----------------+-----------------+------------+-----+ <-- BFGS
 | Parameter |      value      |    tolerance    |    units   | OK? | <-- BFGS
 +-----------+-----------------+-----------------+------------+-----+ <-- BFGS
 |  dE/ion   |   0.000000E+000 |   1.000000E-005 |         eV | No  | <-- BFGS
 |  |F|max   |   1.192609E-004 |   2.000000E-002 |       eV/A | Yes | <-- BFGS
 |  |dR|max  |   0.000000E+000 |   1.000000E-003 |          A | No  | <-- BFGS
 |   Smax    |   5.978661E+000 |   5.000000E-002 |        GPa | No  | <-- BFGS
 +-----------+-----------------+-----------------+------------+-----+ <-- BFGS

 Starting BFGS iteration          1 ...

 +------------+-------------+-------------+-----------------+ <-- min BFGS
 |    Step    |   lambda    |   F.delta   |    enthalpy     | <-- min BFGS
 +------------+-------------+-------------+-----------------+ <-- min BFGS
 |  previous  |    0.000000 |    0.005286 |    -3449.523397 | <-- min BFGS
 +------------+-------------+-------------+-----------------+ <-- min BFGS

 BFGS: starting iteration         1 with trial guess (lambda=  1.000000)

[...]

                                     Cell Contents

[...]

------------------------------------------------------------------------ <-- SCF
SCF loop      Energy           Fermi           Energy gain       Timer   <-- SCF
                               energy          per atom          (sec)   <-- SCF
------------------------------------------------------------------------ <-- SCF
Initial  -3.44885973E+003  0.00000000E+000                       132.47  <-- SCF
 Warning: There are no empty bands for at least one kpoint and spin; this may
          slow the convergence and/or lead to an inaccurate groundstate.
          If this warning persists, you should consider increasing nextra_bands
          and/or reducing smearing_width in the param file.
          Recommend using nextra_bands of 7 to 15.

[...]

 ***************** Stress Tensor *****************
 *          Cartesian components (GPa)           *
 *             x             y             z     *
 *  x      5.941809      0.000023      0.000038  *
 *  y      0.000023      5.942003      0.000073  *
 *  z      0.000038      0.000073      0.010907  *
 *  Pressure:   -3.9649                          *

 +------------+-------------+-------------+-----------------+ <-- min BFGS
 |    Step    |   lambda    |   F.delta   |    enthalpy     | <-- min BFGS
 +------------+-------------+-------------+-----------------+ <-- min BFGS
 |  previous  |    0.000000 |    0.005286 |    -3449.523397 | <-- min BFGS
 | trial step |    1.000000 |    0.005233 |    -3449.666310 | <-- min BFGS
 +------------+-------------+-------------+-----------------+ <-- min BFGS

 BFGS: improving iteration         1 with line minimization (lambda= 13.500156)

[...]

 +------------+-------------+-------------+-----------------+ <-- min BFGS
 |    Step    |   lambda    |   F.delta   |    enthalpy     | <-- min BFGS
 +------------+-------------+-------------+-----------------+ <-- min BFGS
 |  previous  |    0.000000 |    0.005286 |    -3449.523397 | <-- min BFGS
 | trial step |    1.000000 |    0.005233 |    -3449.666310 | <-- min BFGS
 |  line step |   13.500156 |    0.003911 |    -3451.251715 | <-- min BFGS
 +------------+-------------+-------------+-----------------+ <-- min BFGS

 BFGS: finished iteration     1 with enthalpy= -3.45125171E+003 eV

 +-----------+-----------------+-----------------+------------+-----+ <-- BFGS
 | Parameter |      value      |    tolerance    |    units   | OK? | <-- BFGS
 +-----------+-----------------+-----------------+------------+-----+ <-- BFGS
 |  dE/ion   |   4.320794E-001 |   1.000000E-005 |         eV | No  | <-- BFGS
 |  |F|max   |   8.719935E-005 |   2.000000E-002 |       eV/A | Yes | <-- BFGS
 |  |dR|max  |   2.817732E-006 |   1.000000E-003 |          A | Yes | <-- BFGS
 |   Smax    |   4.675238E+000 |   5.000000E-002 |        GPa | No  | <-- BFGS
 +-----------+-----------------+-----------------+------------+-----+ <-- BFGS

[...]

 +-----------+-----------------+-----------------+------------+-----+ <-- BFGS
 | Parameter |      value      |    tolerance    |    units   | OK? | <-- BFGS
 +-----------+-----------------+-----------------+------------+-----+ <-- BFGS
 |  dE/ion   |   8.725085E-003 |   1.000000E-005 |         eV | No  | <-- BFGS
 |  |F|max   |   4.076830E-004 |   2.000000E-002 |       eV/A | Yes | <-- BFGS
 |  |dR|max  |   1.362699E-006 |   1.000000E-003 |          A | Yes | <-- BFGS
 |   Smax    |   5.615380E-001 |   5.000000E-002 |        GPa | No  | <-- BFGS
 +-----------+-----------------+-----------------+------------+-----+ <-- BFGS

[...]

 +-----------+-----------------+-----------------+------------+-----+ <-- BFGS
 | Parameter |      value      |    tolerance    |    units   | OK? | <-- BFGS
 +-----------+-----------------+-----------------+------------+-----+ <-- BFGS
 |  dE/ion   |   1.912716E-003 |   1.000000E-005 |         eV | No  | <-- BFGS
 |  |F|max   |   4.220974E-004 |   2.000000E-002 |       eV/A | Yes | <-- BFGS
 |  |dR|max  |   1.855900E-007 |   1.000000E-003 |          A | Yes | <-- BFGS
 |   Smax    |   3.136272E-002 |   5.000000E-002 |        GPa | Yes | <-- BFGS
 +-----------+-----------------+-----------------+------------+-----+ <-- BFGS

 Starting BFGS iteration          5 ...

Writing analysis data to FCC-Fe__1_0_0_.castep_bin

Writing model to FCC-Fe__1_0_0_.check

 +------------+-------------+-------------+-----------------+ <-- min BFGS
 |    Step    |   lambda    |   F.delta   |    enthalpy     | <-- min BFGS
 +------------+-------------+-------------+-----------------+ <-- min BFGS
 |  previous  |    0.000000 |  1.779E-006 |    -3452.246440 | <-- min BFGS
 +------------+-------------+-------------+-----------------+ <-- min BFGS

 BFGS: starting iteration         5 with trial guess (lambda=  1.000000)

[...]

------------------------------------------------------------------------ <-- SCF
SCF loop      Energy           Fermi           Energy gain       Timer   <-- SCF
                               energy          per atom          (sec)   <-- SCF
------------------------------------------------------------------------ <-- SCF
Initial  -3.45149126E+003  0.00000000E+000                       400.97  <-- SCF
 Warning: There are no empty bands for at least one kpoint and spin; this may
          slow the convergence and/or lead to an inaccurate groundstate.
          If this warning persists, you should consider increasing nextra_bands
          and/or reducing smearing_width in the param file.
          Recommend using nextra_bands of 7 to 15.

[...]

     11  -3.45164553E+003 -5.82200499E+000   2.60696059E-007     416.19  <-- SCF
 Warning: There are no empty bands for at least one kpoint and spin; this may
          slow the convergence and/or lead to an inaccurate groundstate.
          If this warning persists, you should consider increasing nextra_bands
          and/or reducing smearing_width in the param file.
          Recommend using nextra_bands of 7 to 15.

     12  -3.45164553E+003 -5.82216062E+000   1.02579122E-007     417.16  <-- SCF
------------------------------------------------------------------------ <-- SCF

Final energy, E             =  -3451.492133950     eV
Final free energy (E-TS)    =  -3451.645533514     eV
(energies not corrected for finite basis set)

NB est. 0K energy (E-0.5TS)      =  -3451.568833732     eV

Dispersion corrected final energy*, Ecor          =  -3452.093066996     eV
Dispersion corrected final free energy* (Ecor-TS) =  -3452.246466560     eV
NB dispersion corrected est. 0K energy* (Ecor-0.5TS) =  -3452.169766778     eV

 * not corrected for finite basis set

[...]

 +------------+-------------+-------------+-----------------+ <-- min BFGS
 |    Step    |   lambda    |   F.delta   |    enthalpy     | <-- min BFGS
 +------------+-------------+-------------+-----------------+ <-- min BFGS
 |  previous  |    0.000000 |  1.779E-006 |    -3452.246440 | <-- min BFGS
 | trial step |    1.000000 |  2.089E-007 |    -3452.246448 | <-- min BFGS
 +------------+-------------+-------------+-----------------+ <-- min BFGS

 BFGS: finished iteration     5 with enthalpy= -3.45224645E+003 eV

 +-----------+-----------------+-----------------+------------+-----+ <-- BFGS
 | Parameter |      value      |    tolerance    |    units   | OK? | <-- BFGS
 +-----------+-----------------+-----------------+------------+-----+ <-- BFGS
 |  dE/ion   |   2.059294E-006 |   1.000000E-005 |         eV | Yes | <-- BFGS
 |  |F|max   |   4.709697E-004 |   2.000000E-002 |       eV/A | Yes | <-- BFGS
 |  |dR|max  |   7.276970E-007 |   1.000000E-003 |          A | Yes | <-- BFGS
 |   Smax    |   5.580091E-003 |   5.000000E-002 |        GPa | Yes | <-- BFGS
 +-----------+-----------------+-----------------+------------+-----+ <-- BFGS

 BFGS : Geometry optimization completed successfully.

 BFGS : Final Configuration:

                                      Unit Cell
        Real Lattice(A)              Reciprocal Lattice(1/A)
   4.3262794  -0.0000001  -0.0000011        1.4523300   0.0000000   0.0000003
  -0.0000001   4.3262674  -0.0000013        0.0000000   1.4523340   0.0000004
  -0.0000046  -0.0000053  19.9995651        0.0000001   0.0000001   0.3141661

                       Lattice parameters(A)       Cell Angles
                    a =    4.326279          alpha =   90.000032
                    b =    4.326267          beta  =   90.000028
                    c =   19.999565          gamma =   90.000001

                Current cell volume =  374.324695 A**3

                                     Cell Contents

            x  Element    Atom        Fractional coordinates of atoms  x
            x            Number           u          v          w      x
            x  Fe           1         0.000000   0.000000   0.000000   x
            x  Fe           2         0.500000   0.000000   0.000000   x
            x  Fe           3         0.000000   0.500000   0.000000   x
            x  Fe           4         0.500000   0.500000   0.000000   x

 BFGS : Final Enthalpy     = -3.45224645E+003 eV
 BFGS : Final <frequency>  unchanged from initial value
 BFGS : Final bulk modulus =      56.82145 GPa

 *********************************** Forces ***********************************
 *                        Cartesian components (eV/A)                         *
 *                   x                    y                    z              *
 * Fe        1      0.00000              0.00000             -0.00012         *
 * Fe        2      0.00000              0.00000             -0.00047         *
 * Fe        3      0.00000              0.00000              0.00045         *
 * Fe        4      0.00000              0.00000              0.00014         *

 ***************** Stress Tensor *****************
 *          Cartesian components (GPa)           *
 *             x             y             z     *
 *  x      0.003570      0.000000      0.000000  *
 *  y      0.000000      0.003759      0.000008  *
 *  z      0.000000      0.000008      0.005580  *
 *  Pressure:   -0.0043                          *

 Pseudo atomic calculation performed for Fe 3d6 4s2

 Converged in 35 iterations to a total energy of -855.8900 eV

Charge spilling parameter for spin component 1 = 0.51%

     Atomic Populations (Mulliken)
Species   Ion     s      p      d      f     Total  Charge (e)
  Fe       1     0.87   0.30   6.84   0.00   8.00     0.00
  Fe       2     0.87   0.30   6.84   0.00   8.00     0.00
  Fe       3     0.87   0.30   6.84   0.00   8.00     0.00
  Fe       4     0.87   0.30   6.84   0.00   8.00     0.00

            Bond              Population      Length (A)
         Fe 1 -- Fe 3              0.75        2.16313
         Fe 2 -- Fe 4              0.75        2.16313
         Fe 3 -- Fe 4              0.76        2.16314
         Fe 1 -- Fe 2              0.76        2.16314

     Hirshfeld Analysis
Species   Ion     Hirshfeld Charge (e)
  Fe       1                 0.00
  Fe       2                 0.00
  Fe       3                 0.00
  Fe       4                 0.00

Writing analysis data to FCC-Fe__1_0_0_.castep_bin

Writing model to FCC-Fe__1_0_0_.check

 A BibTeX formatted list of references used in this run has been written to
 FCC-Fe__1_0_0_.bib

Initialisation time =      0.22 s
Calculation time    =    420.23 s
Finalisation time   =      0.27 s
Total time          =    420.72 s