 This version was compiled for x86_64-windows-msvc2008 on Nov 12 2013
 Code version: 6201

 Pseudo atomic calculation performed for Fe 3d6 4s2

 Converged in 31 iterations to a total energy of -855.6333 eV

 Calculation parallelised over 3 processes.
 Data is distributed by k-point(3-way)

 ************************************ Title ************************************
 CASTEP calculation from Materials Studio

 ***************************** General Parameters ******************************

 output verbosity                               : normal  (1)
 write checkpoint data to                       : HCP-Fe__0_0_1_.check
 type of calculation                            : single point energy
 stress calculation                             : off
 density difference calculation                 : off
 electron localisation func (ELF) calculation   : off
 Hirshfeld analysis                             : on
 unlimited duration calculation
 timing information                             : on
 write final potential to formatted file        : off
 write final density to formatted file          : off
 write BibTeX reference list                    : on

 output         length unit                     : A
 output           mass unit                     : amu
 output           time unit                     : ps
 output         charge unit                     : e
 output         energy unit                     : eV
 output          force unit                     : eV/A
 output       velocity unit                     : A/ps
 output       pressure unit                     : GPa
 output     inv_length unit                     : 1/A
 output      frequency unit                     : cm-1
 output force constant unit                     : eV/A**2
 output         volume unit                     : A**3
 output   IR intensity unit                     : (D/A)**2/amu
 output         dipole unit                     : D
 output         efield unit                     : eV/A/e
 output        entropy unit                     : J/mol/K

 wavefunctions paging                           : none
 random number generator seed                   : randomised (200657997)
 data distribution                              : optimal for this architecture

 *********************** Exchange-Correlation Parameters ***********************

 using functional                               : Perdew Burke Ernzerhof
 Divergence correction                          : off
 DFT+D: Semi-empirical dispersion correction    : off

 ************************* Pseudopotential Parameters **************************

 pseudopotential representation                 : reciprocal space
 <beta|phi> representation                      : reciprocal space

 **************************** Basis Set Parameters *****************************

 plane wave basis set cut-off                   :   280.0000   eV
 size of standard grid                          :     1.5000
 size of   fine   gmax                          :    12.8590   1/A
 largest prime factor in FFT                    :          5
 finite basis set correction                    : none

 **************************** Electronic Parameters ****************************

 number of  electrons                           :  32.00
 net charge of system                           :  0.000
 net spin   of system                           :  8.000
 number of  up  spins                           :  20.00
 number of down spins                           :  12.00
 treating system as spin-polarized
 number of bands                                :         36

 ********************* Electronic Minimization Parameters **********************

 Method: Treating system as metallic with density mixing treatment of electrons,
         and number of  SD  steps               :          1
         and number of  CG  steps               :          4

 total energy / atom convergence tol.           : 0.1000E-04   eV
 eigen-energy convergence tolerance             : 0.1000E-05   eV
 max force / atom convergence tol.              : ignored
 convergence tolerance window                   :          3   cycles
 max. number of SCF cycles                      :        500
 number of fixed-spin iterations                :          6
 smearing scheme                                : Gaussian
 smearing width                                 : 0.1000       eV
 Fermi energy convergence tolerance             : 0.2721E-13   eV
 periodic dipole correction                     : NONE

 ************************** Density Mixing Parameters **************************

 density-mixing scheme                          : Pulay
 max. length of mixing history                  :         20
 charge density mixing amplitude                : 0.5000
   spin density mixing amplitude                :  2.000
 cut-off energy for mixing                      :  280.0       eV
 charge density mixing g-vector                 :  1.500       1/A
   spin density mixing g-vector                 :  1.500       1/A

 *********************** Population Analysis Parameters ************************

 Population analysis with cutoff                :  3.000       A

                                      Unit Cell
        Real Lattice(A)                      Reciprocal Lattice(1/A)
   4.0651232  -2.3470000   0.0000000        1.5456322   0.0000000   0.0000000
   0.0000000   4.6940000   0.0000000        0.7728161   1.3385567   0.0000000
   0.0000000   0.0000000  20.0000000        0.0000000   0.0000000   0.3141593

                       Lattice parameters(A)       Cell Angles
                    a =    4.694000          alpha =   90.000000
                    b =    4.694000          beta  =   90.000000
                    c =   20.000000          gamma =  120.000000

                       Current cell volume =  381.633771       A**3

                                     Cell Contents
                         Total number of ions in cell =    4
                      Total number of species in cell =    1
                        Max number of any one species =    4

            x  Element    Atom        Fractional coordinates of atoms  x
            x            Number           u          v          w      x
            x  Fe           1         0.333333   0.166667   0.000000   x
            x  Fe           2         0.833333   0.166667   0.000000   x
            x  Fe           3         0.333333   0.666667   0.000000   x
            x  Fe           4         0.833333   0.666667   0.000000   x

                         No user defined ionic velocities

                                   Details of Species

                               Mass of species in AMU
                                    Fe   55.8470001

                          Electric Quadrupole Moment (Barn)
                                    Fe    0.1600000 Isotope 57
         |  Element    Atom         Initial            Initial magnetic       |
         |            Number    spin polarization        moment (uB)          |
         | Fe             1         0.250000              2.000               |
         | Fe             2         0.250000              2.000               |
         | Fe             3         0.250000              2.000               |
         | Fe             4         0.250000              2.000               |

         Quantisation axis:    0.00000   0.00000   1.00000

         Units for Hubbard U values are eV
         |  Element     Atom     Hubbard U   values by orbital type         |
         |             Number      s          p          d          f       |
         |Fe            1         0.00000    0.00000    3.00000    0.00000  |
         |Fe            2         0.00000    0.00000    3.00000    0.00000  |
         |Fe            3         0.00000    0.00000    3.00000    0.00000  |
         |Fe            4         0.00000    0.00000    3.00000    0.00000  |

                          Files used for pseudopotentials:
                                    Fe Fe_00PBE.uspcc

                              k-Points For BZ Sampling
                       MP grid size for SCF calculation is  3  3  1
                         Number of kpoints used =           9

             +  Number       Fractional coordinates        Weight  +
             +     1   0.333333   0.333333   0.000000   0.1111111  +
             +     2   0.333333   0.000000   0.000000   0.1111111  +
             +     3   0.333333  -0.333333   0.000000   0.1111111  +
             +     4   0.000000   0.333333   0.000000   0.1111111  +
             +     5   0.000000   0.000000   0.000000   0.1111111  +
             +     6   0.000000  -0.333333   0.000000   0.1111111  +
             +     7  -0.333333   0.333333   0.000000   0.1111111  +
             +     8  -0.333333   0.000000   0.000000   0.1111111  +
             +     9  -0.333333  -0.333333   0.000000   0.1111111  +

                               Symmetry and Constraints

                      Cell is a supercell containing 4 primitive cells
                      Maximum deviation from symmetry =  0.00000         ANG

         There are no symmetry operations specified or generated for this cell
         There are no ionic constraints specified or generated for this cell
                      Point group of crystal =     1: C1, 1, 1

                         Centre of mass is NOT constrained

                         Number of cell constraints= 0
                         Cell constraints are:  1 2 3 4 5 6

                         External pressure/stress (GPa)
                          0.00000   0.00000   0.00000
                                    0.00000   0.00000
                                              0.00000

[...]

------------------------------------------------------------------------ <-- SCF
SCF loop      Energy           Fermi           Energy gain       Timer   <-- SCF
                               energy          per atom          (sec)   <-- SCF
------------------------------------------------------------------------ <-- SCF
Initial  -9.41106807E+002  0.00000000E+000                         0.70  <-- SCF
      1  -3.29096425E+003 -3.16590847E+000   5.87464360E+002       4.11  <-- SCF
      2  -3.43472136E+003 -9.08043313E+000   3.59392775E+001       6.72  <-- SCF
      3  -3.44484090E+003 -9.22783447E+000   2.52988573E+000       9.19  <-- SCF
      4  -3.44373453E+003 -7.54507818E+000  -2.76592846E-001      11.92  <-- SCF
      5  -3.44566815E+003 -7.80092637E+000   4.83405746E-001      14.67  <-- SCF
      6  -3.44606904E+003 -7.43576956E+000   1.00221980E-001      17.64  <-- SCF
      7  -3.43896451E+003 -6.98749977E+000  -1.77613168E+000      20.44  <-- SCF
      8  -3.44379419E+003 -6.98129882E+000   1.20741939E+000      23.27  <-- SCF
      9  -3.44364774E+003 -6.79909934E+000  -3.66130535E-002      26.11  <-- SCF
     10  -3.43861763E+003 -6.56923431E+000  -1.25752673E+000      28.94  <-- SCF
     11  -3.43364361E+003 -6.20075590E+000  -1.24350616E+000      31.81  <-- SCF
     12  -3.43928992E+003 -6.25277860E+000   1.41157791E+000      34.64  <-- SCF
     13  -3.44247172E+003 -6.29174016E+000   7.95450353E-001      37.78  <-- SCF
     14  -3.43945314E+003 -6.07760977E+000  -7.54645269E-001      40.44  <-- SCF
     15  -3.44086793E+003 -5.99294364E+000   3.53698762E-001      43.17  <-- SCF
     16  -3.44118885E+003 -5.94661116E+000   8.02297975E-002      46.02  <-- SCF
     17  -3.44137676E+003 -5.95501700E+000   4.69754772E-002      48.72  <-- SCF
     18  -3.44152954E+003 -5.93541254E+000   3.81954873E-002      51.69  <-- SCF
     19  -3.44164056E+003 -5.93590229E+000   2.77555682E-002      54.38  <-- SCF
     20  -3.44198287E+003 -5.97866588E+000   8.55777168E-002      57.30  <-- SCF
     21  -3.44186758E+003 -5.97765526E+000  -2.88237577E-002      60.11  <-- SCF
     22  -3.44122435E+003 -5.96741424E+000  -1.60805420E-001      62.95  <-- SCF
     23  -3.44110551E+003 -6.02978893E+000  -2.97104538E-002      65.97  <-- SCF
     24  -3.44265633E+003 -6.08223160E+000   3.87703827E-001      68.69  <-- SCF
     25  -3.44458808E+003 -6.24229482E+000   4.82937025E-001      71.55  <-- SCF
     26  -3.44365709E+003 -6.19685492E+000  -2.32747260E-001      74.23  <-- SCF
     27  -3.44357061E+003 -6.15439078E+000  -2.16202532E-002      76.98  <-- SCF
     28  -3.44392775E+003 -6.14507153E+000   8.92861502E-002      79.77  <-- SCF
     29  -3.44404971E+003 -6.16127961E+000   3.04908401E-002      82.41  <-- SCF
     30  -3.44350510E+003 -6.11364458E+000  -1.36152214E-001      85.11  <-- SCF
     31  -3.44336343E+003 -6.20057384E+000  -3.54184434E-002      87.83  <-- SCF
     32  -3.44394637E+003 -6.13488987E+000   1.45734328E-001      90.64  <-- SCF
     33  -3.44358374E+003 -6.17367472E+000  -9.06571177E-002      93.41  <-- SCF
     34  -3.44349523E+003 -6.17171051E+000  -2.21276482E-002      96.00  <-- SCF
     35  -3.44373526E+003 -6.17368693E+000   6.00074509E-002      98.67  <-- SCF
     36  -3.44496875E+003 -6.18755364E+000   3.08374109E-001     101.42  <-- SCF
     37  -3.44580042E+003 -6.15218276E+000   2.07915249E-001     104.25  <-- SCF
     38  -3.44605917E+003 -6.11633631E+000   6.46882272E-002     107.05  <-- SCF
     39  -3.44610419E+003 -6.15093577E+000   1.12559786E-002     109.67  <-- SCF
     40  -3.44603311E+003 -6.09750556E+000  -1.77719324E-002     112.44  <-- SCF
     41  -3.44600061E+003 -6.02225598E+000  -8.12251446E-003     115.11  <-- SCF
     42  -3.44578702E+003 -6.11340492E+000  -5.33995167E-002     118.03  <-- SCF
     43  -3.44561046E+003 -6.16229918E+000  -4.41399564E-002     120.81  <-- SCF
     44  -3.44569290E+003 -6.14427425E+000   2.06117705E-002     123.47  <-- SCF
     45  -3.44541885E+003 -6.21175157E+000  -6.85133583E-002     126.30  <-- SCF
     46  -3.44639662E+003 -6.03713800E+000   2.44441404E-001     128.94  <-- SCF
     47  -3.44649977E+003 -5.78549470E+000   2.57874255E-002     131.59  <-- SCF
     48  -3.44597547E+003 -5.74636567E+000  -1.31074060E-001     134.33  <-- SCF
     49  -3.44620315E+003 -5.77545232E+000   5.69198639E-002     137.08  <-- SCF
     50  -3.44599041E+003 -5.71031891E+000  -5.31841571E-002     139.81  <-- SCF
     51  -3.44607953E+003 -5.70878341E+000   2.22783525E-002     142.55  <-- SCF
     52  -3.44610192E+003 -5.72509815E+000   5.59783064E-003     145.33  <-- SCF
     53  -3.44610312E+003 -5.72578943E+000   3.00357854E-004     148.08  <-- SCF
     54  -3.44606447E+003 -5.74825817E+000  -9.66195295E-003     150.81  <-- SCF
     55  -3.44594640E+003 -5.59118600E+000  -2.95184103E-002     153.48  <-- SCF
     56  -3.44551254E+003 -5.58426964E+000  -1.08465500E-001     156.17  <-- SCF
     57  -3.44550999E+003 -5.57892972E+000  -6.35111380E-004     158.91  <-- SCF
     58  -3.44611603E+003 -5.52235667E+000   1.51507582E-001     161.77  <-- SCF
     59  -3.44659276E+003 -5.46094207E+000   1.19183418E-001     164.62  <-- SCF
     60  -3.44691280E+003 -5.47285760E+000   8.00094395E-002     167.44  <-- SCF
[...]
    108  -3.44763957E+003 -5.29857862E+000   6.55486071E-005     294.53  <-- SCF
    109  -3.44764044E+003 -5.29529598E+000   2.18728610E-004     296.78  <-- SCF
    110  -3.44764128E+003 -5.28871507E+000   2.09011379E-004     299.20  <-- SCF
    111  -3.44764241E+003 -5.28404466E+000   2.83271630E-004     301.52  <-- SCF
    112  -3.44764281E+003 -5.27958866E+000   9.92738811E-005     303.84  <-- SCF
    113  -3.44764323E+003 -5.27665819E+000   1.06099737E-004     306.14  <-- SCF
    114  -3.44764367E+003 -5.27409249E+000   1.08567984E-004     308.42  <-- SCF
    115  -3.44764397E+003 -5.27468519E+000   7.70043348E-005     310.78  <-- SCF
    116  -3.44764409E+003 -5.27194163E+000   3.00203384E-005     313.03  <-- SCF
    117  -3.44764427E+003 -5.27038103E+000   4.26648036E-005     315.34  <-- SCF
    118  -3.44764439E+003 -5.26872001E+000   3.13089972E-005     317.59  <-- SCF
    119  -3.44764449E+003 -5.26827778E+000   2.60487602E-005     319.84  <-- SCF
    120  -3.44764456E+003 -5.26775393E+000   1.56070940E-005     322.08  <-- SCF
    121  -3.44764458E+003 -5.26760531E+000   5.30145333E-006     324.23  <-- SCF
    122  -3.44764454E+003 -5.26746970E+000  -8.46768301E-006     326.41  <-- SCF
------------------------------------------------------------------------ <-- SCF

 2*Integrated Spin Density   =     12.4444
 2*Integrated |Spin Density| =     12.4815

     LDA+U occupation numbers
Species   Ion   l  spin               occupancies
  Fe       1    2   up:   0.97  0.97  0.99  0.99  1.00
                    dn:   0.04  0.17  0.17  0.81  0.82
  Fe       2    2   up:   0.97  0.97  0.99  0.99  1.00
                    dn:   0.04  0.17  0.17  0.81  0.82
  Fe       3    2   up:   0.97  0.97  0.99  0.99  1.00
                    dn:   0.04  0.17  0.17  0.81  0.82
  Fe       4    2   up:   0.97  0.97  0.99  0.99  1.00
                    dn:   0.04  0.17  0.17  0.81  0.82

Final energy, E             =  -3447.623295307     eV
Final free energy (E-TS)    =  -3447.644544302     eV
(energies not corrected for finite basis set)

NB est. 0K energy (E-0.5TS)      =  -3447.633919805     eV

Writing analysis data to HCP-Fe__0_0_1_.castep_bin

Writing model to HCP-Fe__0_0_1_.check

[...]

 *********************** Forces ***********************
 *            Cartesian components (eV/A)             *
 *                   x            y            z      *
 * Fe        1     -0.00036     -0.00004     -0.00009 *
 * Fe        2      0.00023      0.00016      0.00066 *
 * Fe        3      0.00027      0.00009     -0.00003 *
 * Fe        4     -0.00014     -0.00021     -0.00054 *

 Pseudo atomic calculation performed for Fe 3d6 4s2

 Converged in 31 iterations to a total energy of -855.6333 eV

Charge spilling parameter for spin component 1 = 0.29%
Charge spilling parameter for spin component 2 = 0.96%

     Atomic Populations (Mulliken)
Species   Ion     s      p      d      f     Total  Charge (e)  Spin (hbar)
  Fe       1     0.99   0.37   6.64   0.00   8.00     0.00        1.56
  Fe       2     0.99   0.37   6.64   0.00   8.00     0.00        1.56
  Fe       3     0.99   0.37   6.64   0.00   8.00     0.00        1.56
  Fe       4     0.99   0.37   6.64   0.00   8.00     0.00        1.56

            Bond              Population        Spin       Length (A)
         Fe 3 -- Fe 4              0.11         0.06          2.34700
         Fe 2 -- Fe 4              0.11         0.06          2.34700
         Fe 1 -- Fe 3              0.11         0.06          2.34700
         Fe 1 -- Fe 2              0.11         0.06          2.34700
         Fe 2 -- Fe 3              0.15         0.05          2.34700
         Fe 1 -- Fe 4              0.15         0.05          2.34700

     Hirshfeld Analysis
Species   Ion     Hirshfeld Charge (e)  Spin (hbar)
  Fe       1                 0.00        1.56
  Fe       2                 0.00        1.56
  Fe       3                 0.00        1.56
  Fe       4                 0.00        1.56

Writing analysis data to HCP-Fe__0_0_1_.castep_bin

Writing model to HCP-Fe__0_0_1_.check

 A BibTeX formatted list of references used in this run has been written to
 HCP-Fe__0_0_1_.bib

Initialisation time =      0.23 s
Calculation time    =    328.06 s
Finalisation time   =      0.17 s
Total time          =    328.47 s

Overall parallel efficiency rating: Excellent (99%)

Data was distributed by:-
k-point (3-way); efficiency rating: Excellent (99%)

Parallel notes:
1) Calculation only took 328.4 s, so efficiency estimates may be inaccurate.